\ Generated by MPModelProtoExporter
\   Name             : 
\   Format           : Free
\   Constraints      : 212
\   Variables        : 27
\     Binary         : 0
\     Integer        : 0
\     Continuous     : 27
Maximize
 Obj: -3 _1 -1 _2 -1 _3 -1 _4 -1 _5 -1 _6 -1 _7 +1 _0CC_1_2_3 +1 _0CCT1_2 +1 _0CCT2_3 +1 _0CHN_4 +1 _0CI_1_4_5 +1 _0K_6 +1 _0KT_7 +1 _0MK_1_6 +1 _0N_5 +1 _0T_1_7 
Subject to
 Mono_Ineq.__H(0CC_1_2_3)____H(0CC): -1 _0CC +1 _0CC_1_2_3  >= 0
 Mono_Ineq.__H(0CC_1_2_3)____H(1): -1 _1 +1 _0CC_1_2_3  >= 0
 Mono_Ineq.__H(0CC_1_2_3)____H(2): -1 _2 +1 _0CC_1_2_3  >= 0
 Mono_Ineq.__H(0CC_1_2_3)____H(3): -1 _3 +1 _0CC_1_2_3  >= 0
 Additivity_Ineq.__H(0CC_1_2_3)____H(0CC)___H(1)___H(2)___H(3): -1 _1 -1 _2 -1 _3 -1 _0CC +1 _0CC_1_2_3  <= 0
 Mono_Ineq.__H(0CCT1_2)____H(0CCT1): -1 _0CCT1 +1 _0CCT1_2  >= 0
 Mono_Ineq.__H(0CCT1_2)____H(2): -1 _2 +1 _0CCT1_2  >= 0
 Additivity_Ineq.__H(0CCT1_2)____H(0CCT1)___H(2): -1 _2 -1 _0CCT1 +1 _0CCT1_2  <= 0
 Mono_Ineq.__H(0CCT2_3)____H(0CCT2): -1 _0CCT2 +1 _0CCT2_3  >= 0
 Mono_Ineq.__H(0CCT2_3)____H(3): -1 _3 +1 _0CCT2_3  >= 0
 Additivity_Ineq.__H(0CCT2_3)____H(0CCT2)___H(3): -1 _3 -1 _0CCT2 +1 _0CCT2_3  <= 0
 Mono_Ineq.__H(0CHN_4)____H(0CHN): -1 _0CHN +1 _0CHN_4  >= 0
 Mono_Ineq.__H(0CHN_4)____H(4): -1 _4 +1 _0CHN_4  >= 0
 Additivity_Ineq.__H(0CHN_4)____H(0CHN)___H(4): -1 _4 -1 _0CHN +1 _0CHN_4  <= 0
 Mono_Ineq.__H(0CI_1_4_5)____H(0CI): -1 _0CI +1 _0CI_1_4_5  >= 0
 Mono_Ineq.__H(0CI_1_4_5)____H(1): -1 _1 +1 _0CI_1_4_5  >= 0
 Mono_Ineq.__H(0CI_1_4_5)____H(4): -1 _4 +1 _0CI_1_4_5  >= 0
 Mono_Ineq.__H(0CI_1_4_5)____H(5): -1 _5 +1 _0CI_1_4_5  >= 0
 Additivity_Ineq.__H(0CI_1_4_5)____H(0CI)___H(1)___H(4)___H(5): -1 _1 -1 _4 -1 _5 -1 _0CI +1 _0CI_1_4_5  <= 0
 Mono_Ineq.__H(0K_6)____H(0K): -1 _0K +1 _0K_6  >= 0
 Mono_Ineq.__H(0K_6)____H(6): -1 _6 +1 _0K_6  >= 0
 Additivity_Ineq.__H(0K_6)____H(0K)___H(6): -1 _6 -1 _0K +1 _0K_6  <= 0
 Mono_Ineq.__H(0KT_7)____H(0KT): -1 _0KT +1 _0KT_7  >= 0
 Mono_Ineq.__H(0KT_7)____H(7): -1 _7 +1 _0KT_7  >= 0
 Additivity_Ineq.__H(0KT_7)____H(0KT)___H(7): -1 _7 -1 _0KT +1 _0KT_7  <= 0
 Mono_Ineq.__H(0MK_1_6)____H(0MK): -1 _0MK +1 _0MK_1_6  >= 0
 Mono_Ineq.__H(0MK_1_6)____H(1): -1 _1 +1 _0MK_1_6  >= 0
 Mono_Ineq.__H(0MK_1_6)____H(6): -1 _6 +1 _0MK_1_6  >= 0
 Additivity_Ineq.__H(0MK_1_6)____H(0MK)___H(1)___H(6): -1 _1 -1 _6 -1 _0MK +1 _0MK_1_6  <= 0
 Mono_Ineq.__H(0N_5)____H(0N): -1 _0N +1 _0N_5  >= 0
 Mono_Ineq.__H(0N_5)____H(5): -1 _5 +1 _0N_5  >= 0
 Additivity_Ineq.__H(0N_5)____H(0N)___H(5): -1 _5 -1 _0N +1 _0N_5  <= 0
 Mono_Ineq.__H(0T_1_7)____H(0T): -1 _0T +1 _0T_1_7  >= 0
 Mono_Ineq.__H(0T_1_7)____H(7): -1 _7 +1 _0T_1_7  >= 0
 Mono_Ineq.__H(0T_1_7)____H(1): -1 _1 +1 _0T_1_7  >= 0
 Additivity_Ineq.__H(0T_1_7)____H(0T)___H(7)___H(1): -1 _1 -1 _7 -1 _0T +1 _0T_1_7  <= 0
 Statistics_Ineq._1__1___h(0CC_1_2_3)___0___h(1)____1___log2(135086.0)_|_1_|_CC.MOVIE_ID: +1 _0CC_1_2_3  <= 17.0435
 Statistics_Ineq._2__2___h(0CC_1_2_3)___1___h(1)____2___log2(467.1509392048784)_|_2_|_CC.MOVIE_ID: -1 _1 +2 _0CC_1_2_3  <= 17.7355
 Statistics_Ineq._3__3___h(0CC_1_2_3)___2___h(1)____3___log2(72.71749196120255)_|_3_|_CC.MOVIE_ID: -2 _1 +3 _0CC_1_2_3  <= 18.5527
 Statistics_Ineq._4__4___h(0CC_1_2_3)___3___h(1)____4___log2(29.100069229651567)_|_4_|_CC.MOVIE_ID: -3 _1 +4 _0CC_1_2_3  <= 19.4518
 Statistics_Ineq._5__5___h(0CC_1_2_3)___4___h(1)____5___log2(16.90896668112568)_|_5_|_CC.MOVIE_ID: -4 _1 +5 _0CC_1_2_3  <= 20.3986
 Statistics_Ineq._6__6___h(0CC_1_2_3)___5___h(1)____6___log2(11.809448738964399)_|_6_|_CC.MOVIE_ID: -5 _1 +6 _0CC_1_2_3  <= 21.3712
 Statistics_Ineq._7__7___h(0CC_1_2_3)___6___h(1)____7___log2(9.150848663368562)_|_7_|_CC.MOVIE_ID: -6 _1 +7 _0CC_1_2_3  <= 22.3573
 Statistics_Ineq._8__8___h(0CC_1_2_3)___7___h(1)____8___log2(7.562134910129887)_|_8_|_CC.MOVIE_ID: -7 _1 +8 _0CC_1_2_3  <= 23.3503
 Statistics_Ineq._9__9___h(0CC_1_2_3)___8___h(1)____9___log2(6.521503205103986)_|_9_|_CC.MOVIE_ID: -8 _1 +9 _0CC_1_2_3  <= 24.3468
 Statistics_Ineq._10__10___h(0CC_1_2_3)___9___h(1)____10___log2(5.79379395388838)_|_10_|_CC.MOVIE_ID: -9 _1 +10 _0CC_1_2_3  <= 25.3451
 Statistics_Ineq._11__h(0CC_1_2_3)___h(1)____log2(2.0)_|_inf_|_CC.MOVIE_ID: -1 _1 +1 _0CC_1_2_3  <= 1
 Statistics_Ineq._12__1___h(0CC_1_2_3)___0___h(2)____1___log2(135086.0)_|_1_|_CC.SUBJECT_ID: +1 _0CC_1_2_3  <= 17.0435
 Statistics_Ineq._13__2___h(0CC_1_2_3)___1___h(2)____2___log2(99000.43689802586)_|_2_|_CC.SUBJECT_ID: -1 _2 +2 _0CC_1_2_3  <= 33.1903
 Statistics_Ineq._14__3___h(0CC_1_2_3)___2___h(2)____3___log2(90994.90107952553)_|_3_|_CC.SUBJECT_ID: -2 _2 +3 _0CC_1_2_3  <= 49.4205
 Statistics_Ineq._15__4___h(0CC_1_2_3)___3___h(2)____4___log2(88151.72860588632)_|_4_|_CC.SUBJECT_ID: -3 _2 +4 _0CC_1_2_3  <= 65.7108
 Statistics_Ineq._16__5___h(0CC_1_2_3)___4___h(2)____5___log2(86967.25010874706)_|_5_|_CC.SUBJECT_ID: -4 _2 +5 _0CC_1_2_3  <= 82.0409
 Statistics_Ineq._17__6___h(0CC_1_2_3)___5___h(2)____6___log2(86434.72190758778)_|_6_|_CC.SUBJECT_ID: -5 _2 +6 _0CC_1_2_3  <= 98.3959
 Statistics_Ineq._18__7___h(0CC_1_2_3)___6___h(2)____7___log2(86184.4236853134)_|_7_|_CC.SUBJECT_ID: -6 _2 +7 _0CC_1_2_3  <= 114.766
 Statistics_Ineq._19__8___h(0CC_1_2_3)___7___h(2)____8___log2(86063.2304086529)_|_8_|_CC.SUBJECT_ID: -7 _2 +8 _0CC_1_2_3  <= 131.145
 Statistics_Ineq._20__9___h(0CC_1_2_3)___8___h(2)____9___log2(86003.26005769554)_|_9_|_CC.SUBJECT_ID: -8 _2 +9 _0CC_1_2_3  <= 147.529
 Statistics_Ineq._21__10___h(0CC_1_2_3)___9___h(2)____10___log2(85973.08190165195)_|_10_|_CC.SUBJECT_ID: -9 _2 +10 _0CC_1_2_3  <= 163.916
 Statistics_Ineq._22__h(0CC_1_2_3)___h(2)____log2(85941.0)_|_inf_|_CC.SUBJECT_ID: -1 _2 +1 _0CC_1_2_3  <= 16.3911
 Statistics_Ineq._23__1___h(0CC_1_2_3)___0___h(3)____1___log2(135086.0)_|_1_|_CC.STATUS_ID: +1 _0CC_1_2_3  <= 17.0435
 Statistics_Ineq._24__2___h(0CC_1_2_3)___1___h(3)____2___log2(113197.57285383817)_|_2_|_CC.STATUS_ID: -1 _3 +2 _0CC_1_2_3  <= 33.577
 Statistics_Ineq._25__3___h(0CC_1_2_3)___2___h(3)____3___log2(110898.57004149652)_|_3_|_CC.STATUS_ID: -2 _3 +3 _0CC_1_2_3  <= 50.2766
 Statistics_Ineq._26__4___h(0CC_1_2_3)___3___h(3)____4___log2(110561.71737264829)_|_4_|_CC.STATUS_ID: -3 _3 +4 _0CC_1_2_3  <= 67.018
 Statistics_Ineq._27__5___h(0CC_1_2_3)___4___h(3)____5___log2(110506.0656192398)_|_5_|_CC.STATUS_ID: -4 _3 +5 _0CC_1_2_3  <= 83.7688
 Statistics_Ineq._28__6___h(0CC_1_2_3)___5___h(3)____6___log2(110496.23818705058)_|_6_|_CC.STATUS_ID: -5 _3 +6 _0CC_1_2_3  <= 100.522
 Statistics_Ineq._29__7___h(0CC_1_2_3)___6___h(3)____7___log2(110494.42699393016)_|_7_|_CC.STATUS_ID: -6 _3 +7 _0CC_1_2_3  <= 117.275
 Statistics_Ineq._30__8___h(0CC_1_2_3)___7___h(3)____8___log2(110494.08315508271)_|_8_|_CC.STATUS_ID: -7 _3 +8 _0CC_1_2_3  <= 134.029
 Statistics_Ineq._31__9___h(0CC_1_2_3)___8___h(3)____9___log2(110494.01645100048)_|_9_|_CC.STATUS_ID: -8 _3 +9 _0CC_1_2_3  <= 150.782
 Statistics_Ineq._32__10___h(0CC_1_2_3)___9___h(3)____10___log2(110494.00329526383)_|_10_|_CC.STATUS_ID: -9 _3 +10 _0CC_1_2_3  <= 167.536
 Statistics_Ineq._33__h(0CC_1_2_3)___h(3)____log2(110494.0)_|_inf_|_CC.STATUS_ID: -1 _3 +1 _0CC_1_2_3  <= 16.7536
 Statistics_Ineq._34__1___h(0CCT1_2)___0___h(2)____1___log2(2.0)_|_1_|_CCT1.ID: +1 _0CCT1_2  <= 1
 Statistics_Ineq._35__2___h(0CCT1_2)___1___h(2)____2___log2(1.4142135623730951)_|_2_|_CCT1.ID: -1 _2 +2 _0CCT1_2  <= 1
 Statistics_Ineq._36__3___h(0CCT1_2)___2___h(2)____3___log2(1.2599210498948732)_|_3_|_CCT1.ID: -2 _2 +3 _0CCT1_2  <= 1
 Statistics_Ineq._37__4___h(0CCT1_2)___3___h(2)____4___log2(1.189207115002721)_|_4_|_CCT1.ID: -3 _2 +4 _0CCT1_2  <= 1
 Statistics_Ineq._38__5___h(0CCT1_2)___4___h(2)____5___log2(1.148698354997035)_|_5_|_CCT1.ID: -4 _2 +5 _0CCT1_2  <= 1
 Statistics_Ineq._39__6___h(0CCT1_2)___5___h(2)____6___log2(1.122462048309373)_|_6_|_CCT1.ID: -5 _2 +6 _0CCT1_2  <= 1
 Statistics_Ineq._40__7___h(0CCT1_2)___6___h(2)____7___log2(1.1040895136738123)_|_7_|_CCT1.ID: -6 _2 +7 _0CCT1_2  <= 1
 Statistics_Ineq._41__8___h(0CCT1_2)___7___h(2)____8___log2(1.0905077326652577)_|_8_|_CCT1.ID: -7 _2 +8 _0CCT1_2  <= 1
 Statistics_Ineq._42__9___h(0CCT1_2)___8___h(2)____9___log2(1.080059738892306)_|_9_|_CCT1.ID: -8 _2 +9 _0CCT1_2  <= 1
 Statistics_Ineq._43__10___h(0CCT1_2)___9___h(2)____10___log2(1.0717734625362931)_|_10_|_CCT1.ID: -9 _2 +10 _0CCT1_2  <= 1
 Statistics_Ineq._44__h(0CCT1_2)___h(2)____log2(1.0)_|_inf_|_CCT1.ID: -1 _2 +1 _0CCT1_2  <= 0
 Statistics_Ineq._45__1___h(0CCT2_3)___0___h(3)____1___log2(2.0)_|_1_|_CCT2.ID: +1 _0CCT2_3  <= 1
 Statistics_Ineq._46__2___h(0CCT2_3)___1___h(3)____2___log2(1.4142135623730951)_|_2_|_CCT2.ID: -1 _3 +2 _0CCT2_3  <= 1
 Statistics_Ineq._47__3___h(0CCT2_3)___2___h(3)____3___log2(1.2599210498948732)_|_3_|_CCT2.ID: -2 _3 +3 _0CCT2_3  <= 1
 Statistics_Ineq._48__4___h(0CCT2_3)___3___h(3)____4___log2(1.189207115002721)_|_4_|_CCT2.ID: -3 _3 +4 _0CCT2_3  <= 1
 Statistics_Ineq._49__5___h(0CCT2_3)___4___h(3)____5___log2(1.148698354997035)_|_5_|_CCT2.ID: -4 _3 +5 _0CCT2_3  <= 1
 Statistics_Ineq._50__6___h(0CCT2_3)___5___h(3)____6___log2(1.122462048309373)_|_6_|_CCT2.ID: -5 _3 +6 _0CCT2_3  <= 1
 Statistics_Ineq._51__7___h(0CCT2_3)___6___h(3)____7___log2(1.1040895136738123)_|_7_|_CCT2.ID: -6 _3 +7 _0CCT2_3  <= 1
 Statistics_Ineq._52__8___h(0CCT2_3)___7___h(3)____8___log2(1.0905077326652577)_|_8_|_CCT2.ID: -7 _3 +8 _0CCT2_3  <= 1
 Statistics_Ineq._53__9___h(0CCT2_3)___8___h(3)____9___log2(1.080059738892306)_|_9_|_CCT2.ID: -8 _3 +9 _0CCT2_3  <= 1
 Statistics_Ineq._54__10___h(0CCT2_3)___9___h(3)____10___log2(1.0717734625362931)_|_10_|_CCT2.ID: -9 _3 +10 _0CCT2_3  <= 1
 Statistics_Ineq._55__h(0CCT2_3)___h(3)____log2(1.0)_|_inf_|_CCT2.ID: -1 _3 +1 _0CCT2_3  <= 0
 Statistics_Ineq._56__1___h(0CHN_4)___0___h(4)____1___log2(3140339.0)_|_1_|_CHN.ID: +1 _0CHN_4  <= 21.5825
 Statistics_Ineq._57__2___h(0CHN_4)___1___h(4)____2___log2(1772.100166469153)_|_2_|_CHN.ID: -1 _4 +2 _0CHN_4  <= 21.5825
 Statistics_Ineq._58__3___h(0CHN_4)___2___h(4)____3___log2(146.43970463493355)_|_3_|_CHN.ID: -2 _4 +3 _0CHN_4  <= 21.5825
 Statistics_Ineq._59__4___h(0CHN_4)___3___h(4)____4___log2(42.09632010602771)_|_4_|_CHN.ID: -3 _4 +4 _0CHN_4  <= 21.5825
 Statistics_Ineq._60__5___h(0CHN_4)___4___h(4)____5___log2(19.924861284462093)_|_5_|_CHN.ID: -4 _4 +5 _0CHN_4  <= 21.5825
 Statistics_Ineq._61__6___h(0CHN_4)___5___h(4)____6___log2(12.101227402000738)_|_6_|_CHN.ID: -5 _4 +6 _0CHN_4  <= 21.5825
 Statistics_Ineq._62__7___h(0CHN_4)___6___h(4)____7___log2(8.47499605425258)_|_7_|_CHN.ID: -6 _4 +7 _0CHN_4  <= 21.5825
 Statistics_Ineq._63__8___h(0CHN_4)___7___h(4)____8___log2(6.488167700208412)_|_8_|_CHN.ID: -7 _4 +8 _0CHN_4  <= 21.5825
 Statistics_Ineq._64__9___h(0CHN_4)___8___h(4)____9___log2(5.27091826088404)_|_9_|_CHN.ID: -8 _4 +9 _0CHN_4  <= 21.5825
 Statistics_Ineq._65__10___h(0CHN_4)___9___h(4)____10___log2(4.4637272860763)_|_10_|_CHN.ID: -9 _4 +10 _0CHN_4  <= 21.5825
 Statistics_Ineq._66__h(0CHN_4)___h(4)____log2(1.0)_|_inf_|_CHN.ID: -1 _4 +1 _0CHN_4  <= 0
 Statistics_Ineq._67__1___h(0CI_1_4_5)___0___h(1)____1___log2(9080338.0)_|_1_|_CI.MOVIE_ID: +1 _0CI_1_4_5  <= 23.1143
 Statistics_Ineq._68__2___h(0CI_1_4_5)___1___h(1)____2___log2(27563.385387139948)_|_2_|_CI.MOVIE_ID: -1 _1 +2 _0CI_1_4_5  <= 29.5009
 Statistics_Ineq._69__3___h(0CI_1_4_5)___2___h(1)____3___log2(4678.473598444863)_|_3_|_CI.MOVIE_ID: -2 _1 +3 _0CI_1_4_5  <= 36.5755
 Statistics_Ineq._70__4___h(0CI_1_4_5)___3___h(1)____4___log2(2530.1036854358326)_|_4_|_CI.MOVIE_ID: -3 _1 +4 _0CI_1_4_5  <= 45.2199
 Statistics_Ineq._71__5___h(0CI_1_4_5)___4___h(1)____5___log2(2120.898852477227)_|_5_|_CI.MOVIE_ID: -4 _1 +5 _0CI_1_4_5  <= 55.2523
 Statistics_Ineq._72__6___h(0CI_1_4_5)___5___h(1)____6___log2(1987.7659787786088)_|_6_|_CI.MOVIE_ID: -5 _1 +6 _0CI_1_4_5  <= 65.7416
 Statistics_Ineq._73__7___h(0CI_1_4_5)___6___h(1)____7___log2(1921.0739492206321)_|_7_|_CI.MOVIE_ID: -6 _1 +7 _0CI_1_4_5  <= 76.3539
 Statistics_Ineq._74__8___h(0CI_1_4_5)___7___h(1)____8___log2(1879.74534970034)_|_8_|_CI.MOVIE_ID: -7 _1 +8 _0CI_1_4_5  <= 87.0106
 Statistics_Ineq._75__9___h(0CI_1_4_5)___8___h(1)____9___log2(1851.2593648169632)_|_9_|_CI.MOVIE_ID: -8 _1 +9 _0CI_1_4_5  <= 97.6886
 Statistics_Ineq._76__10___h(0CI_1_4_5)___9___h(1)____10___log2(1830.3777634049627)_|_10_|_CI.MOVIE_ID: -9 _1 +10 _0CI_1_4_5  <= 108.379
 Statistics_Ineq._77__h(0CI_1_4_5)___h(1)____log2(1741.0)_|_inf_|_CI.MOVIE_ID: -1 _1 +1 _0CI_1_4_5  <= 10.7657
 Statistics_Ineq._78__1___h(0CI_1_4_5)___0___h(4)____1___log2(17571519.0)_|_1_|_CI.PERSON_ROLE_ID: +1 _0CI_1_4_5  <= 24.0667
 Statistics_Ineq._79__2___h(0CI_1_4_5)___1___h(4)____2___log2(1521303.4977824115)_|_2_|_CI.PERSON_ROLE_ID: -1 _4 +2 _0CI_1_4_5  <= 41.0738
 Statistics_Ineq._80__3___h(0CI_1_4_5)___2___h(4)____3___log2(1380578.783589613)_|_3_|_CI.PERSON_ROLE_ID: -2 _4 +3 _0CI_1_4_5  <= 61.1905
 Statistics_Ineq._81__4___h(0CI_1_4_5)___3___h(4)____4___log2(1343933.1804706547)_|_4_|_CI.PERSON_ROLE_ID: -3 _4 +4 _0CI_1_4_5  <= 81.4321
 Statistics_Ineq._82__5___h(0CI_1_4_5)___4___h(4)____5___log2(1331240.0222326992)_|_5_|_CI.PERSON_ROLE_ID: -4 _4 +5 _0CI_1_4_5  <= 101.722
 Statistics_Ineq._83__6___h(0CI_1_4_5)___5___h(4)____6___log2(1326356.7974254584)_|_6_|_CI.PERSON_ROLE_ID: -5 _4 +6 _0CI_1_4_5  <= 122.034
 Statistics_Ineq._84__7___h(0CI_1_4_5)___6___h(4)____7___log2(1324367.6246534532)_|_7_|_CI.PERSON_ROLE_ID: -6 _4 +7 _0CI_1_4_5  <= 142.358
 Statistics_Ineq._85__8___h(0CI_1_4_5)___7___h(4)____8___log2(1323527.6383859944)_|_8_|_CI.PERSON_ROLE_ID: -7 _4 +8 _0CI_1_4_5  <= 162.688
 Statistics_Ineq._86__9___h(0CI_1_4_5)___8___h(4)____9___log2(1323164.0043871063)_|_9_|_CI.PERSON_ROLE_ID: -8 _4 +9 _0CI_1_4_5  <= 183.02
 Statistics_Ineq._87__10___h(0CI_1_4_5)___9___h(4)____10___log2(1323003.6736106128)_|_10_|_CI.PERSON_ROLE_ID: -9 _4 +10 _0CI_1_4_5  <= 203.354
 Statistics_Ineq._88__h(0CI_1_4_5)___h(4)____log2(1322872.0)_|_inf_|_CI.PERSON_ROLE_ID: -1 _4 +1 _0CI_1_4_5  <= 20.3352
 Statistics_Ineq._89__1___h(0CI_1_4_5)___0___h(5)____1___log2(36244344.0)_|_1_|_CI.PERSON_ID: +1 _0CI_1_4_5  <= 25.1113
 Statistics_Ineq._90__2___h(0CI_1_4_5)___1___h(5)____2___log2(98126.18903228638)_|_2_|_CI.PERSON_ID: -1 _5 +2 _0CI_1_4_5  <= 33.1647
 Statistics_Ineq._91__3___h(0CI_1_4_5)___2___h(5)____3___log2(25134.93556650828)_|_3_|_CI.PERSON_ID: -2 _5 +3 _0CI_1_4_5  <= 43.8522
 Statistics_Ineq._92__4___h(0CI_1_4_5)___3___h(5)____4___log2(15791.902423131573)_|_4_|_CI.PERSON_ID: -3 _5 +4 _0CI_1_4_5  <= 55.7876
 Statistics_Ineq._93__5___h(0CI_1_4_5)___4___h(5)____5___log2(12971.732840001827)_|_5_|_CI.PERSON_ID: -4 _5 +5 _0CI_1_4_5  <= 68.3154
 Statistics_Ineq._94__6___h(0CI_1_4_5)___5___h(5)____6___log2(11781.748943575585)_|_6_|_CI.PERSON_ID: -5 _5 +6 _0CI_1_4_5  <= 81.1456
 Statistics_Ineq._95__7___h(0CI_1_4_5)___6___h(5)____7___log2(11182.212762251316)_|_7_|_CI.PERSON_ID: -6 _5 +7 _0CI_1_4_5  <= 94.1424
 Statistics_Ineq._96__8___h(0CI_1_4_5)___7___h(5)____8___log2(10845.907300663903)_|_8_|_CI.PERSON_ID: -7 _5 +8 _0CI_1_4_5  <= 107.239
 Statistics_Ineq._97__9___h(0CI_1_4_5)___8___h(5)____9___log2(10643.766168601067)_|_9_|_CI.PERSON_ID: -8 _5 +9 _0CI_1_4_5  <= 120.399
 Statistics_Ineq._98__10___h(0CI_1_4_5)___9___h(5)____10___log2(10516.456582958986)_|_10_|_CI.PERSON_ID: -9 _5 +10 _0CI_1_4_5  <= 133.604
 Statistics_Ineq._99__h(0CI_1_4_5)___h(5)____log2(10249.0)_|_inf_|_CI.PERSON_ID: -1 _5 +1 _0CI_1_4_5  <= 13.3232
 Statistics_Ineq._100__1___h(0K_6)___0___h(6)____1___log2(134170.0)_|_1_|_K.ID: +1 _0K_6  <= 17.0337
 Statistics_Ineq._101__2___h(0K_6)___1___h(6)____2___log2(366.29223305988893)_|_2_|_K.ID: -1 _6 +2 _0K_6  <= 17.0337
 Statistics_Ineq._102__3___h(0K_6)___2___h(6)____3___log2(51.19393035144834)_|_3_|_K.ID: -2 _6 +3 _0K_6  <= 17.0337
 Statistics_Ineq._103__4___h(0K_6)___3___h(6)____4___log2(19.138762579119085)_|_4_|_K.ID: -3 _6 +4 _0K_6  <= 17.0337
 Statistics_Ineq._104__5___h(0K_6)___4___h(6)____5___log2(10.605498428686793)_|_5_|_K.ID: -4 _6 +5 _0K_6  <= 17.0337
 Statistics_Ineq._105__6___h(0K_6)___5___h(6)____6___log2(7.154993385842389)_|_6_|_K.ID: -5 _6 +6 _0K_6  <= 17.0337
 Statistics_Ineq._106__7___h(0K_6)___6___h(6)____7___log2(5.401597291274521)_|_7_|_K.ID: -6 _6 +7 _0K_6  <= 17.0337
 Statistics_Ineq._107__8___h(0K_6)___7___h(6)____8___log2(4.374787146721436)_|_8_|_K.ID: -7 _6 +8 _0K_6  <= 17.0337
 Statistics_Ineq._108__9___h(0K_6)___8___h(6)____9___log2(3.713124327690797)_|_9_|_K.ID: -8 _6 +9 _0K_6  <= 17.0337
 Statistics_Ineq._109__10___h(0K_6)___9___h(6)____10___log2(3.2566084242178692)_|_10_|_K.ID: -9 _6 +10 _0K_6  <= 17.0337
 Statistics_Ineq._110__h(0K_6)___h(6)____log2(1.0)_|_inf_|_K.ID: -1 _6 +1 _0K_6  <= 0
 Statistics_Ineq._111__1___h(0KT_7)___0___h(7)____1___log2(7.0)_|_1_|_KT.ID: +1 _0KT_7  <= 2.80735
 Statistics_Ineq._112__2___h(0KT_7)___1___h(7)____2___log2(2.6457513110645907)_|_2_|_KT.ID: -1 _7 +2 _0KT_7  <= 2.80735
 Statistics_Ineq._113__3___h(0KT_7)___2___h(7)____3___log2(1.912931182772389)_|_3_|_KT.ID: -2 _7 +3 _0KT_7  <= 2.80735
 Statistics_Ineq._114__4___h(0KT_7)___3___h(7)____4___log2(1.6265765616977856)_|_4_|_KT.ID: -3 _7 +4 _0KT_7  <= 2.80735
 Statistics_Ineq._115__5___h(0KT_7)___4___h(7)____5___log2(1.4757731615945522)_|_5_|_KT.ID: -4 _7 +5 _0KT_7  <= 2.80735
 Statistics_Ineq._116__6___h(0KT_7)___5___h(7)____6___log2(1.3830875542684884)_|_6_|_KT.ID: -5 _7 +6 _0KT_7  <= 2.80735
 Statistics_Ineq._117__7___h(0KT_7)___6___h(7)____7___log2(1.3204692477561237)_|_7_|_KT.ID: -6 _7 +7 _0KT_7  <= 2.80735
 Statistics_Ineq._118__8___h(0KT_7)___7___h(7)____8___log2(1.2753731068584542)_|_8_|_KT.ID: -7 _7 +8 _0KT_7  <= 2.80735
 Statistics_Ineq._119__9___h(0KT_7)___8___h(7)____9___log2(1.2413658170152087)_|_9_|_KT.ID: -8 _7 +9 _0KT_7  <= 2.80735
 Statistics_Ineq._120__10___h(0KT_7)___9___h(7)____10___log2(1.214814044039067)_|_10_|_KT.ID: -9 _7 +10 _0KT_7  <= 2.80735
 Statistics_Ineq._121__h(0KT_7)___h(7)____log2(1.0)_|_inf_|_KT.ID: -1 _7 +1 _0KT_7  <= 0
 Statistics_Ineq._122__1___h(0MK_1_6)___0___h(1)____1___log2(3645762.0)_|_1_|_MK.MOVIE_ID: +1 _0MK_1_6  <= 21.7978
 Statistics_Ineq._123__2___h(0MK_1_6)___1___h(1)____2___log2(16089.289294434357)_|_2_|_MK.MOVIE_ID: -1 _1 +2 _0MK_1_6  <= 27.9476
 Statistics_Ineq._124__3___h(0MK_1_6)___2___h(1)____3___log2(3343.4183696630357)_|_3_|_MK.MOVIE_ID: -2 _1 +3 _0MK_1_6  <= 35.1213
 Statistics_Ineq._125__4___h(0MK_1_6)___3___h(1)____4___log2(1671.5371915245896)_|_4_|_MK.MOVIE_ID: -3 _1 +4 _0MK_1_6  <= 42.8278
 Statistics_Ineq._126__5___h(0MK_1_6)___4___h(1)____5___log2(1148.4788080154324)_|_5_|_MK.MOVIE_ID: -4 _1 +5 _0MK_1_6  <= 50.8275
 Statistics_Ineq._127__6___h(0MK_1_6)___5___h(1)____6___log2(914.9417381765562)_|_6_|_MK.MOVIE_ID: -5 _1 +6 _0MK_1_6  <= 59.0252
 Statistics_Ineq._128__7___h(0MK_1_6)___6___h(1)____7___log2(789.6812830661407)_|_7_|_MK.MOVIE_ID: -6 _1 +7 _0MK_1_6  <= 67.3759
 Statistics_Ineq._129__8___h(0MK_1_6)___7___h(1)____8___log2(714.8129944782467)_|_8_|_MK.MOVIE_ID: -7 _1 +8 _0MK_1_6  <= 75.8514
 Statistics_Ineq._130__9___h(0MK_1_6)___8___h(1)____9___log2(666.8052492847414)_|_9_|_MK.MOVIE_ID: -8 _1 +9 _0MK_1_6  <= 84.4301
 Statistics_Ineq._131__10___h(0MK_1_6)___9___h(1)____10___log2(634.4708714390166)_|_10_|_MK.MOVIE_ID: -9 _1 +10 _0MK_1_6  <= 93.0941
 Statistics_Ineq._132__h(0MK_1_6)___h(1)____log2(540.0)_|_inf_|_MK.MOVIE_ID: -1 _1 +1 _0MK_1_6  <= 9.07682
 Statistics_Ineq._133__1___h(0MK_1_6)___0___h(6)____1___log2(4523930.0)_|_1_|_MK.KEYWORD_ID: +1 _0MK_1_6  <= 22.1091
 Statistics_Ineq._134__2___h(0MK_1_6)___1___h(6)____2___log2(142540.5972767057)_|_2_|_MK.KEYWORD_ID: -1 _6 +2 _0MK_1_6  <= 34.242
 Statistics_Ineq._135__3___h(0MK_1_6)___2___h(6)____3___log2(91933.95257125433)_|_3_|_MK.KEYWORD_ID: -2 _6 +3 _0MK_1_6  <= 49.4649
 Statistics_Ineq._136__4___h(0MK_1_6)___3___h(6)____4___log2(82003.06320560009)_|_4_|_MK.KEYWORD_ID: -3 _6 +4 _0MK_1_6  <= 65.2936
 Statistics_Ineq._137__5___h(0MK_1_6)___4___h(6)____5___log2(78043.67590316865)_|_5_|_MK.KEYWORD_ID: -4 _6 +5 _0MK_1_6  <= 81.26
 Statistics_Ineq._138__6___h(0MK_1_6)___5___h(6)____6___log2(76018.0546797557)_|_6_|_MK.KEYWORD_ID: -5 _6 +6 _0MK_1_6  <= 97.2843
 Statistics_Ineq._139__7___h(0MK_1_6)___6___h(6)____7___log2(74849.51552507188)_|_7_|_MK.KEYWORD_ID: -6 _6 +7 _0MK_1_6  <= 113.342
 Statistics_Ineq._140__8___h(0MK_1_6)___7___h(6)____8___log2(74123.73792740938)_|_8_|_MK.KEYWORD_ID: -7 _6 +8 _0MK_1_6  <= 129.421
 Statistics_Ineq._141__9___h(0MK_1_6)___8___h(6)____9___log2(73649.49002095767)_|_9_|_MK.KEYWORD_ID: -8 _6 +9 _0MK_1_6  <= 145.515
 Statistics_Ineq._142__10___h(0MK_1_6)___9___h(6)____10___log2(73328.0635960675)_|_10_|_MK.KEYWORD_ID: -9 _6 +10 _0MK_1_6  <= 161.621
 Statistics_Ineq._143__h(0MK_1_6)___h(6)____log2(72496.0)_|_inf_|_MK.KEYWORD_ID: -1 _6 +1 _0MK_1_6  <= 16.1456
 Statistics_Ineq._144__1___h(0N_5)___0___h(5)____1___log2(4167491.0)_|_1_|_N.ID: +1 _0N_5  <= 21.9907
 Statistics_Ineq._145__2___h(0N_5)___1___h(5)____2___log2(2041.4433619378226)_|_2_|_N.ID: -1 _5 +2 _0N_5  <= 21.9907
 Statistics_Ineq._146__3___h(0N_5)___2___h(5)____3___log2(160.9255085356384)_|_3_|_N.ID: -2 _5 +3 _0N_5  <= 21.9907
 Statistics_Ineq._147__4___h(0N_5)___3___h(5)____4___log2(45.18233462248075)_|_4_|_N.ID: -3 _5 +4 _0N_5  <= 21.9907
 Statistics_Ineq._148__5___h(0N_5)___4___h(5)____5___log2(21.08506451195046)_|_5_|_N.ID: -4 _5 +5 _0N_5  <= 21.9907
 Statistics_Ineq._149__6___h(0N_5)___5___h(5)____6___log2(12.685641825924236)_|_6_|_N.ID: -5 _5 +6 _0N_5  <= 21.9907
 Statistics_Ineq._150__7___h(0N_5)___6___h(5)____7___log2(8.824627484820633)_|_7_|_N.ID: -6 _5 +7 _0N_5  <= 21.9907
 Statistics_Ineq._151__8___h(0N_5)___7___h(5)____8___log2(6.721780613980253)_|_8_|_N.ID: -7 _5 +8 _0N_5  <= 21.9907
 Statistics_Ineq._152__9___h(0N_5)___8___h(5)____9___log2(5.439282684304322)_|_9_|_N.ID: -8 _5 +9 _0N_5  <= 21.9907
 Statistics_Ineq._153__10___h(0N_5)___9___h(5)____10___log2(4.591847614190878)_|_10_|_N.ID: -9 _5 +10 _0N_5  <= 21.9907
 Statistics_Ineq._154__h(0N_5)___h(5)____log2(1.0)_|_inf_|_N.ID: -1 _5 +1 _0N_5  <= 0
 Statistics_Ineq._155__1___h(0T_1_7)___0___h(7)____1___log2(2528312.0)_|_1_|_T.KIND_ID: +1 _0T_1_7  <= 21.2697
 Statistics_Ineq._156__2___h(0T_1_7)___1___h(7)____2___log2(1689230.7620186177)_|_2_|_T.KIND_ID: -1 _7 +2 _0T_1_7  <= 41.3759
 Statistics_Ineq._157__3___h(0T_1_7)___2___h(7)____3___log2(1583443.913864148)_|_3_|_T.KIND_ID: -2 _7 +3 _0T_1_7  <= 61.7839
 Statistics_Ineq._158__4___h(0T_1_7)___3___h(7)____4___log2(1556252.4759197517)_|_4_|_T.KIND_ID: -3 _7 +4 _0T_1_7  <= 82.2786
 Statistics_Ineq._159__5___h(0T_1_7)___4___h(7)____5___log2(1547750.1405598721)_|_5_|_T.KIND_ID: -4 _7 +5 _0T_1_7  <= 102.809
 Statistics_Ineq._160__6___h(0T_1_7)___5___h(7)____6___log2(1544874.3860783328)_|_6_|_T.KIND_ID: -5 _7 +6 _0T_1_7  <= 123.354
 Statistics_Ineq._161__7___h(0T_1_7)___6___h(7)____7___log2(1543857.6838300007)_|_7_|_T.KIND_ID: -6 _7 +7 _0T_1_7  <= 143.907
 Statistics_Ineq._162__8___h(0T_1_7)___7___h(7)____8___log2(1543487.2544881583)_|_8_|_T.KIND_ID: -7 _7 +8 _0T_1_7  <= 164.462
 Statistics_Ineq._163__9___h(0T_1_7)___8___h(7)____9___log2(1543349.256940834)_|_9_|_T.KIND_ID: -8 _7 +9 _0T_1_7  <= 185.019
 Statistics_Ineq._164__10___h(0T_1_7)___9___h(7)____10___log2(1543296.959836952)_|_10_|_T.KIND_ID: -9 _7 +10 _0T_1_7  <= 205.576
 Statistics_Ineq._165__h(0T_1_7)___h(7)____log2(1543264.0)_|_inf_|_T.KIND_ID: -1 _7 +1 _0T_1_7  <= 20.5576
 Statistics_Ineq._166__1___h(0T_1_7)___0___h(1)____1___log2(131072.0)_|_1_|_T.ID: +1 _0T_1_7  <= 17
 Statistics_Ineq._167__2___h(0T_1_7)___1___h(1)____2___log2(362.03867196751236)_|_2_|_T.ID: -1 _1 +2 _0T_1_7  <= 17
 Statistics_Ineq._168__3___h(0T_1_7)___2___h(1)____3___log2(50.79683366298237)_|_3_|_T.ID: -2 _1 +3 _0T_1_7  <= 17
 Statistics_Ineq._169__4___h(0T_1_7)___3___h(1)____4___log2(19.027313840043536)_|_4_|_T.ID: -3 _1 +4 _0T_1_7  <= 17
 Statistics_Ineq._170__5___h(0T_1_7)___4___h(1)____5___log2(10.556063286183155)_|_5_|_T.ID: -4 _1 +5 _0T_1_7  <= 17
 Statistics_Ineq._171__6___h(0T_1_7)___5___h(1)____6___log2(7.127189745122713)_|_6_|_T.ID: -5 _1 +6 _0T_1_7  <= 17
 Statistics_Ineq._172__7___h(0T_1_7)___6___h(1)____7___log2(5.383600770529424)_|_7_|_T.ID: -6 _1 +7 _0T_1_7  <= 17
 Statistics_Ineq._173__8___h(0T_1_7)___7___h(1)____8___log2(4.362030930661031)_|_8_|_T.ID: -7 _1 +8 _0T_1_7  <= 17
 Statistics_Ineq._174__9___h(0T_1_7)___8___h(1)____9___log2(3.7034988491491614)_|_9_|_T.ID: -8 _1 +9 _0T_1_7  <= 17
 Statistics_Ineq._175__10___h(0T_1_7)___9___h(1)____10___log2(3.2490095854249423)_|_10_|_T.ID: -9 _1 +10 _0T_1_7  <= 17
 Statistics_Ineq._176__h(0T_1_7)___h(1)____log2(1.0)_|_inf_|_T.ID: -1 _1 +1 _0T_1_7  <= 0
Bounds
 0 <= _1
 0 <= _2
 0 <= _3
 0 <= _4
 0 <= _5
 0 <= _6
 0 <= _7
 0 <= _0CC
 0 <= _0CC_1_2_3
 0 <= _0CCT1
 0 <= _0CCT1_2
 0 <= _0CCT2
 0 <= _0CCT2_3
 0 <= _0CHN
 0 <= _0CHN_4
 0 <= _0CI
 0 <= _0CI_1_4_5
 0 <= _0K
 0 <= _0K_6
 0 <= _0KT
 0 <= _0KT_7
 0 <= _0MK
 0 <= _0MK_1_6
 0 <= _0N
 0 <= _0N_5
 0 <= _0T
 0 <= _0T_1_7
End
